(set-info :smt-lib-version 2.6)
(set-logic QF_SLIA)
(set-info :source |
Generated by: Denghang Hu,
Generated on: 2023-03-29
Application: Evaluate string solvers
Description: The instance consists of:
(1) a regular membership predicate from the real world
(2) a regular membership predicate to sanitize danger letters in javascript such as <,>,&,",'
(3) a lower bound for string length
Target solver: Ostrich, Z3str3, CVC5
|)
(set-info :license "https://creativecommons.org/licenses/by/4.0/")
(set-info :category "industrial")
(set-info :status unknown)
        ;test regex ^(\+?\s{0,2}([0-9\u0660-\u0669]{1,3}))?[-,.\s]{0,2}\(?[0-9\u0660-\u0669]{1,5}\)?[-,.\s]{0,2}[0-9\u0660-\u0669]{1,5}[-,.\s]{0,2}[0-9\u0660-\u0669]{1,6}\s{0,2}\+?
(declare-const X String)
(assert (str.in_re X (re.++ (str.to_re "") (re.++ (re.opt (re.++ (re.opt (str.to_re "+")) (re.++ ((_ re.loop 0 2) (re.union (str.to_re " ") (re.union (str.to_re "\u{0b}") (re.union (str.to_re "\u{0a}") (re.union (str.to_re "\u{0d}") (re.union (str.to_re "\u{09}") (str.to_re "\u{0c}"))))))) ((_ re.loop 1 3) (re.union (re.range "0" "9") (re.range "\u{0660}" "\u{0669}")))))) (re.++ ((_ re.loop 0 2) (re.union (str.to_re "-") (re.union (str.to_re ",") (re.union (str.to_re ".") (re.union (str.to_re "\u{20}") (re.union (str.to_re "\u{0b}") (re.union (str.to_re "\u{0a}") (re.union (str.to_re "\u{0d}") (re.union (str.to_re "\u{09}") (str.to_re "\u{0c}")))))))))) (re.++ (re.opt (str.to_re "(")) (re.++ ((_ re.loop 1 5) (re.union (re.range "0" "9") (re.range "\u{0660}" "\u{0669}"))) (re.++ (re.opt (str.to_re ")")) (re.++ ((_ re.loop 0 2) (re.union (str.to_re "-") (re.union (str.to_re ",") (re.union (str.to_re ".") (re.union (str.to_re "\u{20}") (re.union (str.to_re "\u{0b}") (re.union (str.to_re "\u{0a}") (re.union (str.to_re "\u{0d}") (re.union (str.to_re "\u{09}") (str.to_re "\u{0c}")))))))))) (re.++ ((_ re.loop 1 5) (re.union (re.range "0" "9") (re.range "\u{0660}" "\u{0669}"))) (re.++ ((_ re.loop 0 2) (re.union (str.to_re "-") (re.union (str.to_re ",") (re.union (str.to_re ".") (re.union (str.to_re "\u{20}") (re.union (str.to_re "\u{0b}") (re.union (str.to_re "\u{0a}") (re.union (str.to_re "\u{0d}") (re.union (str.to_re "\u{09}") (str.to_re "\u{0c}")))))))))) (re.++ ((_ re.loop 1 6) (re.union (re.range "0" "9") (re.range "\u{0660}" "\u{0669}"))) (re.++ ((_ re.loop 0 2) (re.union (str.to_re " ") (re.union (str.to_re "\u{0b}") (re.union (str.to_re "\u{0a}") (re.union (str.to_re "\u{0d}") (re.union (str.to_re "\u{09}") (str.to_re "\u{0c}"))))))) (re.opt (str.to_re "+")))))))))))))))
; sanitize danger characters:  < > ' " &
(assert (not (str.in_re X (re.++ re.all (re.union (str.to_re "\u{3c}") (str.to_re "\u{3e}") (str.to_re "\u{27}") (str.to_re "\u{22}") (str.to_re "\u{26}")) re.all))))
(assert (< 20 (str.len X)))
(check-sat)
(exit)
